Set parameter Username
Academic license - for non-commercial use only - expires 2024-10-29
Set parameter LazyConstraints to value 1
Set parameter TimeLimit to value 600
Gurobi Optimizer version 10.0.0 build v10.0.0rc2 (linux64)

CPU model: AMD FX(tm)-4300 Quad-Core Processor, instruction set [SSE2|AVX]
Thread count: 2 physical cores, 4 logical processors, using up to 4 threads

Optimize a model with 10083 rows, 2500 columns and 10832 nonzeros
Model fingerprint: 0x1338ab20
Variable types: 0 continuous, 2500 integer (2500 binary)
Coefficient statistics:
  Matrix range     [1e+00, 1e+00]
  Objective range  [1e+00, 1e+01]
  Bounds range     [1e+00, 1e+00]
  RHS range        [1e+00, 1e+00]
Presolve removed 10000 rows and 0 columns
Presolve time: 0.00s
Presolved: 83 rows, 2500 columns, 832 nonzeros
Variable types: 0 continuous, 2500 integer (2500 binary)

Root relaxation: objective 1.130000e+02, 78 iterations, 0.00 seconds (0.00 work units)

    Nodes    |    Current Node    |     Objective Bounds      |     Work
 Expl Unexpl |  Obj  Depth IntInf | Incumbent    BestBd   Gap | It/Node Time

     0     0  113.00000    0    -          -  113.00000      -     -    4s
     0     0  114.00000    0    -          -  114.00000      -     -    4s
     0     0  114.00000    0    -          -  114.00000      -     -    5s
     0     0  115.00000    0    -          -  115.00000      -     -    6s
     0     0  115.50000    0    3          -  115.50000      -     -    6s
H    0     0                     755.0000000  163.50000  78.3%     -   16s
     0     0  163.50000    0    5  755.00000  163.50000  78.3%     -   16s
     0     0  186.00000    0    -  755.00000  186.00000  75.4%     -   18s
     0     0  186.00000    0    -  755.00000  186.00000  75.4%     -   19s
     0     0  186.00000    0    -  755.00000  186.00000  75.4%     -   20s
     0     0  187.00000    0    -  755.00000  187.00000  75.2%     -   20s
     0     0  188.00000    0    -  755.00000  188.00000  75.1%     -   21s
     0     0  188.00000    0    -  755.00000  188.00000  75.1%     -   22s
     0     0  188.00000    0    -  755.00000  188.00000  75.1%     -   23s
     0     0  188.00000    0    -  755.00000  188.00000  75.1%     -   24s
H    0     0                     640.0000000  188.00000  70.6%     -   24s
     0     0  188.00000    0    6  640.00000  188.00000  70.6%     -   24s
     0     0  188.00000    0    6  640.00000  188.00000  70.6%     -   37s
     0     0  189.00000    0    -  640.00000  189.00000  70.5%     -   38s
     0     0  190.00000    0    -  640.00000  190.00000  70.3%     -   39s
     0     0  190.00000    0    -  640.00000  190.00000  70.3%     -   40s
     0     0  190.00000    0    -  640.00000  190.00000  70.3%     -   41s
     0     0  190.00000    0    -  640.00000  190.00000  70.3%     -   41s
     0     0  190.00000    0    -  640.00000  190.00000  70.3%     -   42s
     0     0  190.00000    0    -  640.00000  190.00000  70.3%     -   43s
     0     0  190.00000    0    -  640.00000  190.00000  70.3%     -   44s
     0     0  190.00000    0    -  640.00000  190.00000  70.3%     -   45s
     0     0  190.00000    0    8  640.00000  190.00000  70.3%     -   45s
     0     0  199.66667    0    5  640.00000  199.66667  68.8%     -   45s
H    0     0                     595.0000000  199.66667  66.4%     -   46s
     0     0  200.00000    0    5  595.00000  200.00000  66.4%     -   51s
     0     2  200.00000    0   10  595.00000  200.00000  66.4%     -   54s
     7     9  200.50000    3    8  595.00000  200.00000  66.4%  11.9   57s
    19    22  200.50000    6    3  595.00000  200.00000  66.4%   8.1   65s
    29    34  200.50000    9    3  595.00000  200.00000  66.4%   7.3   71s
    43    36  201.00000   13    -  595.00000  200.00000  66.4%   6.0   76s
    65    37  201.00000    4    -  595.00000  200.50000  66.3%   7.1   86s
    94    92  201.50000    8    6  595.00000  200.50000  66.3%   8.1   97s
H  117    92                     594.0000000  200.50000  66.2%   7.0  104s
   130   114  201.50000   31    3  594.00000  200.50000  66.2%   6.9  109s
H  147   115                     590.0000000  200.50000  66.0%   6.6  115s
H  148   115                     564.0000000  200.50000  64.5%   6.5  116s
   191   191  201.75000   59    6  564.00000  200.50000  64.5%   6.1  129s
   230   201  201.75000   75    6  564.00000  200.50000  64.5%   5.8  142s
   242   228  201.75000   81    8  564.00000  200.50000  64.5%   5.7  146s
   282   303  201.88889   97    9  564.00000  200.50000  64.5%   5.5  161s
   354   348  202.00000  117    -  564.00000  200.50000  64.5%   4.8  181s
   413   369  204.00000  129    -  564.00000  200.50000  64.5%   4.9  200s
   442   421  201.21429   12   11  564.00000  200.50000  64.5%   5.0  209s
H  480   424                     562.0000000  200.50000  64.3%   4.8  222s
   502   447  202.00000   47    -  562.00000  200.50000  64.3%   4.9  231s
H  506   449                     544.0000000  200.50000  63.1%   4.9  233s
   556   507  201.08333   10   14  544.00000  200.50000  63.1%   4.9  249s
H  574   507                     542.0000000  200.50000  63.0%   4.8  255s
H  580   507                     538.0000000  200.50000  62.7%   4.8  258s
H  585   509                     536.0000000  200.50000  62.6%   4.8  261s
   614   575  202.00000   37    5  536.00000  200.50000  62.6%   4.8  271s
   684   629  202.00000    8    7  536.00000  200.50000  62.6%   4.6  294s
   750   638  201.50000   50    5  536.00000  200.50000  62.6%   4.5  315s
   753   640  201.50000   32   11  536.00000  200.50000  62.6%   4.5  324s
H  755   641                     530.0000000  200.50000  62.2%   4.5  327s
H  759   644                     506.0000000  205.57233  59.4%   4.5  329s
   760   645  205.57233   17   19  506.00000  205.57233  59.4%   4.5  331s
   764   647  208.67056   56   25  506.00000  208.67056  58.8%   4.4  339s
   765   648  209.01969    4   26  506.00000  209.01969  58.7%   4.4  340s
H  770   651                     501.0000000  210.33156  58.0%   4.4  344s
   771   652  210.33156   41   38  501.00000  210.33156  58.0%   4.4  345s
   776   656  210.65488   66   11  501.00000  210.65488  58.0%   6.7  353s
   779   658  210.65488   51   19  501.00000  210.65488  58.0%   6.7  355s
H  790   666                     496.0000000  212.14524  57.2%   6.6  360s
H  795   669                     484.0000000  213.60468  55.9%   6.5  364s
H  796   670                     472.0000000  213.98247  54.7%   6.5  365s
H  798   671                     464.0000000  214.42736  53.8%   6.5  367s
   800   672  214.60436   35   59  464.00000  214.60436  53.7%   6.5  370s
H  808   678                     459.0000000  216.77400  52.8%   6.4  374s
   810   679  216.94821    8   69  459.00000  216.94821  52.7%   6.4  375s
H  810   679                     439.0000000  217.12374  50.5%   6.4  376s
   819   685  218.61876   30   63  439.00000  218.61876  50.2%   6.3  385s
   826   690  219.67794   75   71  439.00000  219.67794  50.0%   6.3  390s
   836   697  220.35816   40   14  439.00000  220.35816  49.8%  13.2  402s
   841   701  220.35816   27   29  439.00000  220.35816  49.8%  13.1  405s
   853   709  220.35816   32   70  439.00000  220.35816  49.8%  13.0  410s
   865   717  221.90552    4   87  439.00000  221.90552  49.5%  12.8  415s
H  868   719                     390.0000000  222.22218  43.0%  12.7  417s
   876   725  222.38545   66    5  390.00000  222.38545  43.0%  17.4  420s
   878   726  222.38545   32   26  390.00000  222.38545  43.0%  17.4  432s
   879   727  222.38545   51   26  390.00000  222.38545  43.0%  17.4  442s
   888   733  222.38545   49   41  390.00000  222.38545  43.0%  17.2  445s
   899   740  222.38545   41   74  390.00000  222.38545  43.0%  17.0  450s
   909   747  222.38545   15   90  390.00000  222.38545  43.0%  16.8  455s
   912   754  222.38545   52   78  390.00000  222.38545  43.0%  20.2  460s
   924   762  222.38545   54   81  390.00000  222.38545  43.0%  20.4  466s
   932   767  222.38545   55   77  390.00000  222.38545  43.0%  20.5  471s
   938   769  222.38545   55   79  390.00000  222.38545  43.0%  20.7  476s
   947   774  222.55091   55   76  390.00000  222.38545  43.0%  20.7  480s
   956   783  222.38545   58   74  390.00000  222.38545  43.0%  20.8  485s
   966   794  222.38545   60   68  390.00000  222.38545  43.0%  20.9  490s
   974   801  222.38545   61   67  390.00000  222.38545  43.0%  21.1  495s
   984   810  222.38545   62   71  390.00000  222.38545  43.0%  21.2  500s
   996   815  222.38545   63   75  390.00000  222.38545  43.0%  21.4  507s
  1005   825  222.38545   63   64  390.00000  222.38545  43.0%  21.5  511s
  1018   831  222.38545   64   71  390.00000  222.38545  43.0%  21.6  516s
  1028   838  222.38545   64   74  390.00000  222.38545  43.0%  21.8  522s
  1039   852  222.38821   65   84  390.00000  222.38545  43.0%  22.0  527s
  1056   860  222.45048   66   72  390.00000  222.38545  43.0%  22.1  537s
  1070   871  222.53068   68   70  390.00000  222.38545  43.0%  22.3  545s
  1086   887  222.56129   71   63  390.00000  222.38545  43.0%  22.5  554s
  1092   885  222.78813   74   57  390.00000  222.38545  43.0%  22.6  557s
  1107   894  222.54944   74   65  390.00000  222.38545  43.0%  22.6  566s
  1121   912  222.56039   76   62  390.00000  222.38545  43.0%  22.6  574s
  1144   934  222.56658   79   63  390.00000  222.38545  43.0%  22.6  586s
  1173   950  222.60330   82   62  390.00000  222.38545  43.0%  22.6  601s

Cutting planes:
  User: 50
  Gomory: 1
  MIR: 4
  Flow cover: 5
  Zero half: 2
  Lazy constraints: 54

Explored 1199 nodes (27657 simplex iterations) in 612.43 seconds (9.89 work units)
Thread count was 4 (of 4 available processors)

Solution count 10: 390 439 459 ... 530

Time limit reached
Best objective 3.900000000000e+02, best bound 2.230000000000e+02, gap 42.8205%

User-callback calls 5581, time in user-callback 602.72 sec
